
Gurobi 9.5.1 (win64) logging started Tue Apr 19 10:50:23 2022

Set parameter LogFile to value "./Log/Pattern_Appro_solver_1800_order_120_batch.log"
Gurobi Optimizer version 9.5.1 build v9.5.1rc2 (win64)
Thread count: 6 physical cores, 12 logical processors, using up to 12 threads
Optimize a model with 6880 rows, 125760 columns and 672480 nonzeros
Model fingerprint: 0x9d91a7df
Variable types: 0 continuous, 125760 integer (109440 binary)
Coefficient statistics:
  Matrix range     [1e+00, 2e+01]
  Objective range  [1e+00, 4e+01]
  Bounds range     [1e+00, 4e+01]
  RHS range        [1e+00, 4e+01]
Found heuristic solution: objective 31614.000000
Presolve removed 595 rows and 7913 columns
Presolve time: 0.87s
Presolved: 6285 rows, 117847 columns, 604287 nonzeros
Variable types: 0 continuous, 117847 integer (102419 binary)

Root simplex log...

Iteration    Objective       Primal Inf.    Dual Inf.      Time
   20910    4.2160008e+03   3.213108e+04   0.000000e+00      5s
   35418    4.2763462e+03   2.511067e+07   0.000000e+00     10s
   48418    4.5879392e+03   5.973714e+04   0.000000e+00     15s
   59828    4.7875381e+03   5.646106e+04   0.000000e+00     20s
   71633    5.0832470e+03   3.679985e+04   0.000000e+00     25s
   87671    5.5727040e+03   3.932183e+03   0.000000e+00     30s
   89961    5.6065714e+03   0.000000e+00   0.000000e+00     30s

Root relaxation: objective 5.606571e+03, 89961 iterations, 29.51 seconds (32.22 work units)

    Nodes    |    Current Node    |     Objective Bounds      |     Work
 Expl Unexpl |  Obj  Depth IntInf | Incumbent    BestBd   Gap | It/Node Time

     0     0 5606.57143    0 1350 31614.0000 5606.57143  82.3%     -   31s
H    0     0                    18807.000000 5606.57143  70.2%     -   31s
H    0     0                    16232.000000 5606.57143  65.5%     -   56s
H    0     0                    15926.000000 5606.57143  64.8%     -   74s
     0     0 5740.43720    0 2059 15926.0000 5740.43720  64.0%     -   79s
H    0     0                    15409.000000 5740.43720  62.7%     -   82s
     0     0 5756.91735    0 2076 15409.0000 5756.91735  62.6%     -   83s
     0     0 5759.01392    0 2131 15409.0000 5759.01392  62.6%     -   83s
     0     0 5759.12114    0 2128 15409.0000 5759.12114  62.6%     -   83s
     0     0 5759.12649    0 2136 15409.0000 5759.12649  62.6%     -   83s
     0     0 5852.56046    0 2781 15409.0000 5852.56046  62.0%     -   91s
     0     0 5876.37361    0 2869 15409.0000 5876.37361  61.9%     -   96s
     0     0 5882.11155    0 2908 15409.0000 5882.11155  61.8%     -   98s
     0     0          -    0      15409.0000 5882.11155  61.8%     -  100s

Cutting planes:
  Gomory: 6
  Cover: 1343
  Implied bound: 116
  Clique: 276
  MIR: 32
  StrongCG: 20
  Flow cover: 159
  Zero half: 3
  Network: 1
  Relax-and-lift: 1

Explored 1 nodes (109212 simplex iterations) in 100.15 seconds (105.89 work units)
Thread count was 12 (of 12 available processors)

Solution count 5: 15409 15926 16232 ... 31614

Time limit reached
Best objective 1.540900000000e+04, best bound 5.883000000000e+03, gap 61.8210%
